results_rootrelaxation/bin018_060_043.srr.sol
solution status: optimal solution found
objective value:                                    0
_var708_                           0.0313271981247446 	(obj:0)
_var2721_                          0.0579569773614822 	(obj:0)
_var2728_                          0.0963932563418025 	(obj:0)
_var2729_                          0.0309838306195988 	(obj:0)
_var2735_                          0.0791010103882106 	(obj:0)
_var2768_                           0.215468963116027 	(obj:0)
_var2772_                           0.171011355820957 	(obj:0)
_var2788_                         0.00971614858792307 	(obj:0)
_var2789_                          0.0017221283131387 	(obj:0)
_var2794_                           0.368129346702371 	(obj:0)
_var2796_                           0.078592037664365 	(obj:0)
_var2798_                            0.30707020991807 	(obj:0)
_var2800_                          0.0238644347370346 	(obj:0)
_var2804_                          0.0752337371309565 	(obj:0)
_var2817_                           0.246172216026805 	(obj:0)
_var2824_                           0.103923881744352 	(obj:0)
_var2831_                           0.295499392879503 	(obj:0)
_var2839_                          0.0683147995144746 	(obj:0)
_var2840_                          0.0337019037157048 	(obj:0)
_var2851_                          0.0130317209259871 	(obj:0)
_var2854_                           0.142835360701747 	(obj:0)
_var2855_                           0.155057552548373 	(obj:0)
_var2859_                           0.113962458529796 	(obj:0)
_var2874_                          0.0811786561926055 	(obj:0)
_var2876_                         0.00169279194906713 	(obj:0)
_var2881_                           0.057194884858007 	(obj:0)
_var2882_                           0.140624676361637 	(obj:0)
_var2892_                           0.186809601026791 	(obj:0)
_var2893_                         0.00968663590558845 	(obj:0)
_var2894_                            0.19441316125993 	(obj:0)
_var2895_                          0.0867646762337117 	(obj:0)
_var2897_                          0.0364636180488432 	(obj:0)
_var2900_                          0.0900088040444346 	(obj:0)
_var2901_                           0.302277528067826 	(obj:0)
_var2902_                          0.0281031486839179 	(obj:0)
_var2903_                           0.171201493181225 	(obj:0)
_var2904_                           0.288736078312414 	(obj:0)
_var2906_                         0.00525319582766998 	(obj:0)
_var2910_                          0.0659385862925242 	(obj:0)
_var2915_                         0.00106003099746656 	(obj:0)
_var2917_                           0.154022702907363 	(obj:0)
_var2923_                          0.0543227202214287 	(obj:0)
_var2925_                            0.33048567566096 	(obj:0)
_var2927_                           0.153458579809281 	(obj:0)
_var2928_                            0.19531528070172 	(obj:0)
_var2929_                           0.209905755580509 	(obj:0)
_var2931_                          0.0879947485407815 	(obj:0)
_var2932_                          0.0758619896892385 	(obj:0)
_var2934_                          0.0012311763424363 	(obj:0)
_var2935_                          0.0957156919363541 	(obj:0)
_var2936_                           0.132319227981411 	(obj:0)
_var2939_                          0.0460965874758056 	(obj:0)
_var2944_                          0.0986412121370633 	(obj:0)
_var2946_                           0.124534816025438 	(obj:0)
_var2947_                           0.242316534654662 	(obj:0)
_var2948_                           0.156393364191716 	(obj:0)
_var2951_                         0.00937543846777464 	(obj:0)
_var2956_                           0.237354314479126 	(obj:0)
_var2957_                           0.145854564512116 	(obj:0)
_var2959_                          0.0351490974129698 	(obj:0)
_var2962_                           0.141649207181322 	(obj:0)
_var2970_                          0.0667401265707155 	(obj:0)
_var2975_                          0.0456553239004659 	(obj:0)
_var2980_                          0.0838978974134587 	(obj:0)
_var2982_                          0.0743274868052597 	(obj:0)
_var2984_                           0.142669966421198 	(obj:0)
_var2985_                            0.20017869831093 	(obj:0)
_var2986_                           0.233634329256571 	(obj:0)
_var2987_                            0.01149165105095 	(obj:0)
_var2989_                           0.155668533674701 	(obj:0)
_var2992_                           0.208357911721533 	(obj:0)
_var2993_                          0.0752450528261755 	(obj:0)
_var2995_                            0.11536054965152 	(obj:0)
_var2999_                          0.0735685339392407 	(obj:0)
_var3000_                           0.110103629868588 	(obj:0)
_var3001_                          0.0858754197842518 	(obj:0)
_var3003_                          0.0413091316405085 	(obj:0)
_var3005_                           0.242312107474561 	(obj:0)
_var3006_                          0.0513276680776141 	(obj:0)
_var3008_                           0.246041071403097 	(obj:0)
_var3009_                           0.182070219315891 	(obj:0)
_var3014_                           0.107928474296415 	(obj:0)
_var3016_                            0.14901638322897 	(obj:0)
_var3018_                            0.11633746329661 	(obj:0)
_var3020_                           0.145542209079036 	(obj:0)
_var3021_                           0.158056990428256 	(obj:0)
_var3022_                           0.219919358166507 	(obj:0)
_var3023_                           0.109435741145054 	(obj:0)
_var3026_                          0.0871611574658581 	(obj:0)
_var3027_                           0.025726140505718 	(obj:0)
_var3028_                           0.349446627338698 	(obj:0)
_var3029_                            0.22967686559212 	(obj:0)
_var3030_                           0.190344682667374 	(obj:0)
_var3033_                           0.121191029238372 	(obj:0)
_var3034_                          0.0024231922232396 	(obj:0)
_var3037_                           0.060402281526457 	(obj:0)
_var3038_                          0.0160898074971287 	(obj:0)
_var3041_                          0.0099781797511088 	(obj:0)
_var3043_                           0.225277221849381 	(obj:0)
_var3045_                           0.204948821258005 	(obj:0)
_var3046_                          0.0872462718168389 	(obj:0)
_var3048_                            0.16464555297665 	(obj:0)
_var3049_                          0.0409127763467009 	(obj:0)
_var3050_                           0.111376075238492 	(obj:0)
_var3053_                           0.014405223743197 	(obj:0)
_var3054_                         0.00918062066606479 	(obj:0)
_var3055_                          0.0302627830497433 	(obj:0)
_var3058_                           0.288162921936989 	(obj:0)
_var3062_                           0.125903595573765 	(obj:0)
_var3067_                          0.0367176419593158 	(obj:0)
_var3068_                           0.299536108157232 	(obj:0)
_var3072_                           0.118293375138676 	(obj:0)
_var3073_                           0.124797460779093 	(obj:0)
_var3075_                           0.102148870885837 	(obj:0)
_var3076_                           0.155377188277038 	(obj:0)
_var3077_                          0.0997597806851023 	(obj:0)
_var3078_                           0.069479108582334 	(obj:0)
_var3080_                            0.08927126652985 	(obj:0)
_var3083_                           0.177690723792057 	(obj:0)
_var3086_                           0.104079568995905 	(obj:0)
_var3088_                         0.00666956980905495 	(obj:0)
_var3089_                           0.152832172830396 	(obj:0)
_var3090_                           0.102645041523113 	(obj:0)
_var3091_                           0.179363015674191 	(obj:0)
_var3093_                           0.162859970079322 	(obj:0)
_var3094_                          0.0280621419687324 	(obj:0)
_var3095_                          0.0435485709401879 	(obj:0)
_var3096_                           0.028967473058389 	(obj:0)
_var3097_                          0.0350647817863501 	(obj:0)
_var3098_                           0.157801086174045 	(obj:0)
_var3099_                           0.222322827473817 	(obj:0)
_var3102_                           0.225157256508867 	(obj:0)
_var3103_                          0.0839296816412972 	(obj:0)
_var3104_                           0.223707746265794 	(obj:0)
_var3105_                          0.0494655620657961 	(obj:0)
_var3106_                          0.0027423450789781 	(obj:0)
_var3111_                          0.0456252949906396 	(obj:0)
_var3112_                          0.0339721739153501 	(obj:0)
_var3115_                           0.120476582015609 	(obj:0)
_var3117_                            0.17095061850421 	(obj:0)
_var3118_                           0.152951118809009 	(obj:0)
_var3119_                          0.0355555195421064 	(obj:0)
_var3122_                          0.0244758778275867 	(obj:0)
_var3124_                           0.120253498354009 	(obj:0)
_var3126_                          0.0241975539602647 	(obj:0)
_var3129_                           0.040823158752421 	(obj:0)
_var3136_                          0.0181220941490873 	(obj:0)
_var3141_                          0.0188710405214925 	(obj:0)
_var3143_                          0.0701252004209112 	(obj:0)
